c A SAT instance generated from a 3-CNF formula that had 39 clauses and 13 variables
p cnf 13 39
-8 2 -1 0
-2 -13 -12 0
-2 13 6 0
13 6 4 0
6 -8 -11 0
5 6 13 0
-3 11 -7 0
2 1 13 0
-12 -13 6 0
3 -8 -12 0
-5 -1 7 0
9 -1 2 0
7 6 -5 0
-3 8 2 0
6 10 -9 0
1 -3 7 0
9 4 -8 0
-10 5 7 0
5 -6 -10 0
7 3 -6 0
7 12 6 0
1 -4 -13 0
11 -12 6 0
-5 12 -3 0
-1 8 -11 0
2 -12 10 0
4 -1 9 0
-4 -7 11 0
-12 5 -11 0
3 8 -4 0
6 2 -12 0
-12 5 13 0
-13 -9 -6 0
7 4 9 0
-3 -5 10 0
13 5 -2 0
5 4 6 0
-10 5 -2 0
4 -2 7 0
